c This is QMaxSAT 2017 based on 14.07
c This is Glucose 3.0
c This is MiniSat 2.2.0
c WARNING: for repeatability, setting FPU to use double precision
c card = mrwto, comp = 0, pmodel = 0, narr = 3, mct = 16, verb = 0
cr firstCPXsol 0 0 0
c top = 214379
c |  Number of variables:    648                                              |
c |  Number of clauses:      9366                                             |
c |  Weight of hard clauses: 214379                                           |
c |  Number of soft clauses: 900                                              |
c |  Number of unit soft clauses: 0                                           |
c |  Maximum Cardinality (by unit): 776370       (0           )               |
c last restart ## conflicts  :  0 57 
o 8475 | cpuTime 0.003976 s
c Sum of weights = 258790
c A number of soft clauses remained = 300
c MRWTO encoding for Pseudo-Boolean Constraints
c sizeMax=8475
c No.0 Divisor=10	generated by pow1
c No.1 Divisor=10	generated by pow1
c No.2 Divisor=10	generated by pow1
c No.3 Divisor=10	generated by pow1
c p0= 10	p1= 10	p2= 10	p3= 10	
c number of digits = 5
c linkingVar[0].size = 10, linkingVar[1].size = 10, linkingVar[2].size = 10, linkingVar[3].size = 9, linkingVar[4].size = 1, 
c Pseudo-Boolean Constraints: 8147 variables and 72468 clauses
c Sum of weights = 258790
c A number of soft clauses remained = 300
c MRWTO encoding for Pseudo-Boolean Constraints
c sizeMax=8475
c No.0 Divisor=10	generated by pow1
c No.1 Divisor=10	generated by pow1
c No.2 Divisor=10	generated by pow1
c No.3 Divisor=10	generated by pow1
c p0= 10	p1= 10	p2= 10	p3= 10	
c number of digits = 5
c linkingVar[0].size = 10, linkingVar[1].size = 10, linkingVar[2].size = 10, linkingVar[3].size = 9, linkingVar[4].size = 1, 
c Pseudo-Boolean Constraints: 8147 variables and 72468 clauses
c Sum of weights = 258790
c A number of soft clauses remained = 300
c MRWTO encoding for Pseudo-Boolean Constraints
c sizeMax=8475
c No.0 Divisor=10	generated by pow1
c No.1 Divisor=10	generated by pow1
c No.2 Divisor=10	generated by pow1
c No.3 Divisor=10	generated by pow1
c p0= 10	p1= 10	p2= 10	p3= 10	
c number of digits = 5
c linkingVar[0].size = 10, linkingVar[1].size = 10, linkingVar[2].size = 10, linkingVar[3].size = 9, linkingVar[4].size = 1, 
c Pseudo-Boolean Constraints: 8147 variables and 72468 clauses
c last restart ## conflicts  :  68 1388 
o 6507 | cpuTime 0.136631 s
c last restart ## conflicts  :  66 1413 
o 5309 | cpuTime 0.14745 s
c last restart ## conflicts  :  470 708 
o 5294 | cpuTime 0.257901 s
c last restart ## conflicts  :  166 914 
o 5212 | cpuTime 0.282851 s
c last restart ## conflicts  :  164 884 
o 5195 | cpuTime 0.340125 s
c last restart ## conflicts  :  125 1125 
o 5175 | cpuTime 0.710521 s
c last restart ## conflicts  :  60 1287 
o 5145 | cpuTime 1.03538 s
c last restart ## conflicts  :  585 843 
o 5144 | cpuTime 1.21741 s
s UNKNOWN
c Search is stopped by a limit (maybe time-limit)
cr positiVarArr: [ | 14(1->12) | 25(1->5) | 49(1->11) | 64(2->8) | 90(3->16) | 94(4->2) | 125(5->15) | 129(6->1) | 146(7->1) | 178(8->14) | 185(9->3) | 204(10->4) | 224(11->6) | 246(12->10) | 261(13->7) | 285(14->13) | 299(15->9) | 307(16->1) | ]
cr the 1-th chain: [ 1->12->10->4->2->8->14->13->7->1 ] (#non-depot=8) {#cumul.=9}
cr the 2-th chain: [ 1->5->15->9->3->16->1 ] (#non-depot=5) {#cumul.=14}
cr the 3-th chain: [ 1->11->6->1 ] (#non-depot=2) {#cumul.=16}
c Latest Answer = 0 by 9 loops
c restarts              : 81102
c conflicts             : 8961875        (2408 /sec)
c decisions             : 21404540       (0.00 % random) (5751 /sec)
c propagations          : 575849685      (154713 /sec)
c conflict literals     : 929010714      (12.56 % deleted)
c Memory used           : 455.00 MB
c CPU time              : 3722.06 s
